sat
(:eliminated-applications 2
 :eliminated-vars         1
 :max-memory              18.28
 :memory                  18.12
 :nlsat-propagations      5
 :nlsat-stages            3
 :num-allocs              9455
 :rlimit-count            9688
 :time                    0.01
 :total-time              0.01)
